rc1_10_6

VEHICLE
NUMBER   CAPACITY
250     200

CUSTOMER
CUST NO. XCOORD.  YCOORD.  DEMAND  READY TIME DUE DATE  SERVICE TIME

0   250    250     0     0    1821     0
193 60 231 32 1011 1071 10
879 53 204 8 1040 1100 10
919 61 214 4 327 387 10
80 34 169 11 469 529 10
832 46 163 8 911 971 10
988 34 239 16 216 276 10
995 18 225 8 676 736 10
47 41 232 16 209 269 10
305 111 178 18 156 216 10
497 72 227 25 549 609 10
313 30 155 9 1265 1325 10
43 111 192 11 1184 1244 10
510 21 146 21 472 532 10
462 43 135 31 236 296 10
970 13 214 21 1339 1399 10
425 103 177 28 611 671 10
536 105 181 19 1516 1576 10
772 89 185 16 585 645 10
614 39 162 18 550 610 10
177 7 194 29 936 996 10
786 47 208 30 211 271 10
127 0 188 26 917 977 10
566 68 160 21 1121 1181 10
50 86 199 23 263 323 10
694 31 175 24 232 292 10
688 57 183 15 1085 1145 10
